NAME : lin318.20765.tour
COMMENT : Length = 20765
COMMENT : Found by LKH [Keld Helsgaun] Sat May 25 06:41:18 2013
TYPE : TOUR
DIMENSION : 64
TOUR_SECTION
10
3
9
5
112
108
113
128
137
38
154
161
149
209
142
140
225
220
217
213
218
224
245
247
251
254
257
262
271
276
298
305
309
303
299
286
283
277
170
193
186
194
198
197
196
190
187
65
61
63
81
89
93
92
91
317
51
47
44
41
36
27
20
11
-1
EOF
